(set-logic QF_S)
(declare-fun var0 () String)
(declare-fun var1 () String)
(declare-fun var2 () String)
(declare-fun var3 () String)
(declare-fun var4 () String)
(declare-fun var5 () String)
(declare-fun var6 () String)
(declare-fun var7 () String)
(declare-fun var8 () String)
(declare-fun var9 () String)
(declare-fun var10 () String)
(declare-fun var11 () String)
(declare-fun var12 () String)
(declare-fun var13 () String)
(declare-fun var14 () String)
(declare-fun var15 () String)
(declare-fun var16 () String)
(declare-fun var17 () String)
(declare-fun var18 () String)
(declare-fun var19 () String)
(declare-fun var20 () String)
(declare-fun var21 () String)
(declare-fun var22 () String)
(declare-fun var23 () String)
(declare-fun var24 () String)
(declare-fun var25 () String)
(declare-fun var26 () String)
(declare-fun var27 () String)
(declare-fun var28 () String)
(declare-fun var29 () String)
(declare-fun var30 () String)
(declare-fun var31 () String)
(declare-fun var32 () String)
(declare-fun var33 () String)
(declare-fun var34 () String)
(declare-fun var35 () String)
(declare-fun var36 () String)
(declare-fun var37 () String)
(declare-fun var38 () String)
(declare-fun var39 () String)
(declare-fun var40 () String)
(declare-fun var41 () String)
(declare-fun var42 () String)
(declare-fun var43 () String)
(declare-fun var44 () String)
(declare-fun var45 () String)
(declare-fun var46 () String)
(declare-fun var47 () String)
(declare-fun var48 () String)
(declare-fun var49 () String)
(declare-fun var50 () String)
(declare-fun var51 () String)
(declare-fun var52 () String)
(declare-fun var53 () String)
(declare-fun var54 () String)
(declare-fun var55 () String)
(declare-fun var56 () String)
(declare-fun var57 () String)
(declare-fun var58 () String)
(declare-fun var59 () String)
(declare-fun var60 () String)
(assert (= var0 (str.++ var1 var2)))
(assert (= var2 (str.++ var3 var4)))
(assert (= var4 (str.++ var5 var6)))
(assert (= var6 (str.++ var7 var8)))
(assert (= var8 (str.++ var9 var10)))
(assert (= var10 (str.++ var11 var12)))
(assert (= var12 (str.++ var13 var14)))
(assert (= var14 (str.++ var15 var16)))
(assert (= var16 (str.++ var17 var18)))
(assert (= var18 (str.++ var19 var20)))
(assert (= var20 (str.++ var21 var22)))
(assert (= var22 (str.++ var23 var24)))
(assert (= var24 (str.++ var25 var26)))
(assert (= var26 (str.++ var27 var28)))
(assert (= var28 (str.++ var29 var30)))
(assert (= var30 (str.++ var31 var32)))
(assert (= var32 (str.++ var33 var34)))
(assert (= var34 (str.++ var35 var36)))
(assert (= var36 (str.++ var37 var38)))
(assert (= var38 (str.++ var39 var40)))
(assert (= var40 (str.++ var41 var42)))
(assert (= var42 (str.++ var43 var44)))
(assert (= var44 (str.++ var45 var46)))
(assert (= var46 (str.++ var47 var48)))
(assert (= var48 (str.++ var49 var50)))
(assert (= var50 (str.++ var51 var52)))
(assert (= var52 (str.++ var53 var54)))
(assert (= var54 (str.++ var55 var56)))
(assert (= var56 (str.++ var57 var58)))
(assert (= var58 (str.++ var59 var60)))
(assert (= var0 "solution"))
(assert (= "@" (str.at var46 892)))
(assert (= "l" (str.at var59 357)))
(assert (= "S" (str.at var57 914)))
(assert (= "~" (str.at var2 47)))
(assert (= "5" (str.at var19 975)))
(assert (= "h" (str.at var43 963)))
(assert (= "u" (str.at var6 1)))
(assert (= "<" (str.at var52 902)))
(assert (= "<" (str.at var59 235)))
(assert (= "B" (str.at var50 379)))
(assert (= "7" (str.at var31 755)))
(assert (= ">" (str.at var25 551)))
(assert (= "4" (str.at var23 592)))
(assert (= "i" (str.at var10 902)))
(assert (= "?" (str.at var58 332)))
(assert (= "q" (str.at var42 659)))
(assert (= "+" (str.at var27 916)))
(assert (= "O" (str.at var17 92)))
(assert (= "4" (str.at var37 358)))
(assert (= "(" (str.at var14 603)))
(assert (= "=" (str.at var25 980)))
(assert (= "o" (str.at var35 127)))
(assert (= "'" (str.at var5 228)))
(assert (= "7" (str.at var25 941)))
(assert (= "t" (str.at var35 486)))
(assert (= "v" (str.at var49 858)))
(assert (= "+" (str.at var46 506)))
(assert (= "K" (str.at var58 842)))
(assert (= "S" (str.at var53 67)))
(assert (= "Y" (str.at var36 60)))
(assert (= "$" (str.at var7 590)))
(assert (= "*" (str.at var7 776)))
(assert (= "z" (str.at var6 544)))
(assert (= "1" (str.at var35 452)))
(assert (= "o" (str.at var24 910)))
(assert (= "D" (str.at var57 803)))
(assert (= "z" (str.at var7 80)))
(assert (= "r" (str.at var11 887)))
(assert (= "G" (str.at var44 48)))
(assert (= """" (str.at var12 638)))
(assert (= "L" (str.at var19 242)))
(assert (= "4" (str.at var48 770)))
(assert (= "7" (str.at var50 760)))
(assert (= "&" (str.at var41 549)))
(assert (= "X" (str.at var26 425)))
(assert (= "/" (str.at var26 766)))
(assert (= """" (str.at var24 522)))
(assert (= "j" (str.at var11 680)))
(assert (= "Z" (str.at var12 936)))
(assert (= "m" (str.at var29 294)))
(assert (= "P" (str.at var2 9)))
(assert (= "/" (str.at var7 115)))
(assert (= "H" (str.at var40 185)))
(assert (= "l" (str.at var8 864)))
(assert (= "s" (str.at var60 887)))
(assert (= "2" (str.at var36 103)))
(assert (= "z" (str.at var45 176)))
(assert (= "&" (str.at var50 897)))
(assert (= "z" (str.at var21 167)))
(assert (= "d" (str.at var41 685)))
(assert (= "H" (str.at var38 170)))
(assert (= "W" (str.at var23 7)))
(assert (= "G" (str.at var17 530)))
(assert (= "3" (str.at var5 111)))
(assert (= "_" (str.at var41 584)))
(assert (= "a" (str.at var58 670)))
(assert (= "}" (str.at var51 274)))
(assert (= "*" (str.at var39 382)))
(assert (= "q" (str.at var5 723)))
(assert (= "G" (str.at var58 97)))
(assert (= "9" (str.at var56 168)))
(assert (= "b" (str.at var50 900)))
(assert (= "t" (str.at var58 653)))
(assert (= "I" (str.at var43 93)))
(assert (= "&" (str.at var42 842)))
(assert (= "O" (str.at var23 32)))
(assert (= "7" (str.at var1 673)))
(assert (= "d" (str.at var33 375)))
(assert (= "D" (str.at var60 901)))
(assert (= "4" (str.at var44 425)))
(assert (= "x" (str.at var14 75)))
(assert (= "^" (str.at var52 583)))
(assert (= "T" (str.at var43 361)))
(assert (= "%" (str.at var35 821)))
(assert (= "I" (str.at var14 423)))
(assert (= "/" (str.at var14 455)))
(assert (= "6" (str.at var0 103)))
(assert (= "!" (str.at var57 423)))
(assert (= "T" (str.at var51 114)))
(assert (= "s" (str.at var6 256)))
(assert (= "^" (str.at var55 471)))
(assert (= "G" (str.at var52 431)))
(assert (= "g" (str.at var39 721)))
(assert (= "i" (str.at var35 711)))
(assert (= "g" (str.at var45 63)))
(assert (= "`" (str.at var3 788)))
(assert (= "q" (str.at var21 37)))
(assert (= "p" (str.at var24 830)))
(assert (= "Y" (str.at var33 281)))
(assert (= "D" (str.at var31 59)))
(assert (= "V" (str.at var31 714)))
(assert (= "L" (str.at var45 937)))
(assert (= "Q" (str.at var54 486)))
(assert (= "N" (str.at var0 818)))
(assert (= "}" (str.at var20 517)))
(assert (= "d" (str.at var18 174)))
(assert (= "p" (str.at var54 795)))
(assert (= "g" (str.at var27 379)))
(assert (= "o" (str.at var25 378)))
(assert (= "A" (str.at var4 863)))
(assert (= "r" (str.at var32 270)))
(assert (= "0" (str.at var26 530)))
(assert (= ">" (str.at var53 487)))
(assert (= "B" (str.at var3 947)))
(assert (= "p" (str.at var59 748)))
(assert (= "E" (str.at var21 159)))
(assert (= "$" (str.at var8 800)))
(assert (= "o" (str.at var42 957)))
(assert (= "-" (str.at var55 818)))
(assert (= "^" (str.at var52 344)))
(assert (= "a" (str.at var52 686)))
(assert (= "_" (str.at var56 72)))
(assert (= ">" (str.at var13 298)))
(assert (= "o" (str.at var30 993)))
(assert (= "$" (str.at var47 308)))
(assert (= "2" (str.at var8 667)))
(assert (= "A" (str.at var2 779)))
(assert (= "M" (str.at var43 66)))
(assert (= "^" (str.at var3 448)))
(assert (= "F" (str.at var33 270)))
(assert (= "t" (str.at var40 557)))
(assert (= "a" (str.at var44 549)))
(assert (= "." (str.at var2 971)))
(assert (= "N" (str.at var24 723)))
(assert (= "l" (str.at var4 536)))
(assert (= "5" (str.at var47 822)))
(assert (= "g" (str.at var12 618)))
(assert (= "f" (str.at var19 73)))
(assert (= "1" (str.at var5 881)))
(assert (= "g" (str.at var18 538)))
(assert (= "7" (str.at var17 196)))
(assert (= "Z" (str.at var48 87)))
(assert (= "s" (str.at var30 930)))
(assert (= "P" (str.at var14 778)))
(assert (= "H" (str.at var7 481)))
(assert (= "\\" (str.at var51 611)))
(assert (= "R" (str.at var44 385)))
(assert (= "P" (str.at var4 902)))
(assert (= "c" (str.at var8 521)))
(assert (= "W" (str.at var39 78)))
(assert (= "(" (str.at var23 538)))
(assert (= "6" (str.at var24 500)))
(assert (= ")" (str.at var34 273)))
(assert (= "p" (str.at var39 374)))
(assert (= "R" (str.at var23 358)))
(assert (= "i" (str.at var1 754)))
(assert (= "L" (str.at var55 348)))
(assert (= "," (str.at var10 67)))
(assert (= "d" (str.at var58 305)))
(assert (= "`" (str.at var34 181)))
(assert (= """" (str.at var56 747)))
(assert (= "a" (str.at var8 317)))
(assert (= "w" (str.at var56 477)))
(assert (= "l" (str.at var38 162)))
(assert (= "R" (str.at var28 375)))
(assert (= "<" (str.at var54 701)))
(assert (= ">" (str.at var29 710)))
(assert (= "#" (str.at var45 190)))
(assert (= "8" (str.at var18 86)))
(assert (= "p" (str.at var15 187)))
(assert (= "," (str.at var13 615)))
(assert (= "a" (str.at var38 680)))
(assert (= "l" (str.at var44 299)))
(assert (= "?" (str.at var27 410)))
(assert (= "C" (str.at var27 756)))
(assert (= "j" (str.at var40 393)))
(assert (= "a" (str.at var38 311)))
(assert (= "s" (str.at var4 613)))
(assert (= "+" (str.at var46 710)))
(assert (= "1" (str.at var52 530)))
(assert (= "$" (str.at var26 519)))
(assert (= "l" (str.at var19 531)))
(assert (= "j" (str.at var32 387)))
(assert (= "Y" (str.at var51 445)))
(assert (= "^" (str.at var18 339)))
(assert (= "E" (str.at var32 536)))
(assert (= "'" (str.at var45 837)))
(assert (= "x" (str.at var53 356)))
(assert (= ":" (str.at var5 511)))
(assert (= "~" (str.at var0 375)))
(assert (= "D" (str.at var60 442)))
(assert (= ":" (str.at var47 744)))
(assert (= "}" (str.at var4 766)))
(assert (= "F" (str.at var2 288)))
(assert (= "(" (str.at var18 536)))
(assert (= "R" (str.at var53 634)))
(assert (= "i" (str.at var21 715)))
(assert (= "\\" (str.at var36 387)))
(assert (= "n" (str.at var39 705)))
(assert (= "A" (str.at var7 184)))
(assert (= "u" (str.at var17 388)))
(assert (= "!" (str.at var4 844)))
(assert (= "Y" (str.at var10 120)))
(assert (= "l" (str.at var44 351)))
(assert (= "s" (str.at var60 56)))
(assert (= "u" (str.at var0 231)))
(assert (= "d" (str.at var46 65)))
(assert (= "p" (str.at var0 554)))
(assert (= "7" (str.at var6 427)))
(assert (= "-" (str.at var0 108)))
(assert (= "l" (str.at var28 510)))
(assert (= "@" (str.at var21 828)))
(assert (= "e" (str.at var26 138)))
(assert (= "D" (str.at var60 837)))
(assert (= "A" (str.at var33 672)))
(assert (= "f" (str.at var13 243)))
(assert (= "j" (str.at var20 681)))
(assert (= "q" (str.at var29 856)))
(assert (= "e" (str.at var32 13)))
(assert (= ">" (str.at var43 765)))
(assert (= "3" (str.at var48 91)))
(assert (= "J" (str.at var2 612)))
(assert (= "W" (str.at var43 98)))
(assert (= "J" (str.at var8 679)))
(assert (= "T" (str.at var4 188)))
(assert (= "b" (str.at var49 700)))
(assert (= "h" (str.at var21 870)))
(assert (= "p" (str.at var11 176)))
(assert (= "6" (str.at var29 620)))
(assert (= ")" (str.at var32 424)))
(assert (= "'" (str.at var45 186)))
(assert (= "K" (str.at var39 794)))
(assert (= "f" (str.at var41 407)))
(assert (= "b" (str.at var9 37)))
(assert (= "Z" (str.at var5 958)))
(assert (= "b" (str.at var30 942)))
(assert (= "2" (str.at var15 725)))
(assert (= "U" (str.at var20 193)))
(assert (= "e" (str.at var43 445)))
(assert (= "e" (str.at var25 175)))
(assert (= "i" (str.at var35 65)))
(assert (= "`" (str.at var49 315)))
(assert (= "/" (str.at var34 308)))
(assert (= "B" (str.at var9 820)))
(assert (= "|" (str.at var25 784)))
(assert (= "m" (str.at var6 373)))
(assert (= "k" (str.at var0 765)))
(assert (= "l" (str.at var52 295)))
(assert (= "v" (str.at var20 176)))
(assert (= "I" (str.at var17 994)))
(assert (= "u" (str.at var5 500)))
(assert (= "w" (str.at var15 782)))
(assert (= "j" (str.at var39 813)))
(assert (= "L" (str.at var27 803)))
(assert (= "m" (str.at var21 548)))
(assert (= "k" (str.at var21 646)))
(assert (= "T" (str.at var3 854)))
(assert (= "&" (str.at var15 382)))
(assert (= "j" (str.at var39 499)))
(assert (= "^" (str.at var8 839)))
(assert (= "6" (str.at var38 484)))
(assert (= "P" (str.at var9 29)))
(assert (= "," (str.at var49 222)))
(assert (= "7" (str.at var21 506)))
(assert (= "X" (str.at var12 725)))
(assert (= "G" (str.at var60 158)))
(assert (= "3" (str.at var21 757)))
(assert (= "Q" (str.at var57 935)))
(assert (= "I" (str.at var59 331)))
(assert (= "d" (str.at var13 968)))
(assert (= "V" (str.at var6 508)))
(assert (= "^" (str.at var8 87)))
(assert (= "?" (str.at var16 595)))
(assert (= "&" (str.at var24 477)))
(assert (= "D" (str.at var3 869)))
(assert (= "R" (str.at var33 732)))
(assert (= "Z" (str.at var16 93)))
(assert (= "1" (str.at var18 472)))
(assert (= "q" (str.at var59 632)))
(assert (= "8" (str.at var8 522)))
(assert (= "g" (str.at var30 695)))
(assert (= "k" (str.at var39 565)))
(assert (= "b" (str.at var58 186)))
(assert (= "}" (str.at var13 918)))
(assert (= "f" (str.at var47 151)))
(assert (= "Q" (str.at var12 666)))
(assert (= "g" (str.at var24 697)))
(assert (= "^" (str.at var0 436)))
(assert (= "}" (str.at var5 180)))
(assert (= "$" (str.at var13 426)))
(assert (= "0" (str.at var55 13)))
(assert (= "E" (str.at var53 603)))
(assert (= "G" (str.at var31 771)))
(assert (= "P" (str.at var57 370)))
(assert (= "U" (str.at var5 524)))
(assert (= "q" (str.at var8 220)))
(assert (= "M" (str.at var44 636)))
(assert (= "a" (str.at var6 786)))
(assert (= "]" (str.at var2 134)))
(assert (= "2" (str.at var59 684)))
(assert (= "@" (str.at var38 540)))
(assert (= "/" (str.at var4 568)))
(assert (= "P" (str.at var38 44)))
(assert (= "p" (str.at var41 864)))
(assert (= "B" (str.at var60 448)))
(assert (= "]" (str.at var14 829)))
(assert (= "a" (str.at var6 131)))
(assert (= "g" (str.at var41 243)))
(assert (= "b" (str.at var26 398)))
(assert (= "I" (str.at var22 875)))
(assert (= "W" (str.at var5 604)))
(assert (= "]" (str.at var0 224)))
(assert (= "A" (str.at var5 838)))
(assert (= "|" (str.at var33 357)))
(assert (= "j" (str.at var16 715)))
(assert (= "." (str.at var59 238)))
(assert (= "+" (str.at var44 380)))
(assert (= "k" (str.at var31 239)))
(assert (= "Q" (str.at var57 426)))
(assert (= "j" (str.at var36 16)))
(assert (= ";" (str.at var0 342)))
(assert (= "-" (str.at var17 561)))
(assert (= "Z" (str.at var59 33)))
(assert (= "}" (str.at var50 316)))
(assert (= "+" (str.at var51 326)))
(assert (= "-" (str.at var6 618)))
(assert (= "!" (str.at var52 25)))
(assert (= "z" (str.at var15 564)))
(assert (= "v" (str.at var19 976)))
(assert (= "0" (str.at var19 24)))
(assert (= "&" (str.at var31 522)))
(assert (= ">" (str.at var9 806)))
(assert (= "X" (str.at var15 726)))
(assert (= "i" (str.at var12 758)))
(assert (= "%" (str.at var4 171)))
(assert (= "$" (str.at var38 754)))
(assert (= "n" (str.at var4 353)))
(assert (= "=" (str.at var10 413)))
(assert (= "s" (str.at var13 347)))
(assert (= "l" (str.at var24 948)))
(assert (= "O" (str.at var17 933)))
(assert (= "x" (str.at var25 844)))
(assert (= "R" (str.at var5 442)))
(assert (= "Q" (str.at var54 823)))
(assert (= "@" (str.at var42 956)))
(assert (= "S" (str.at var29 366)))
(assert (= ":" (str.at var24 306)))
(assert (= "\\" (str.at var29 261)))
(assert (= "C" (str.at var48 756)))
(assert (= "}" (str.at var45 697)))
(assert (= "T" (str.at var25 493)))
(assert (= "u" (str.at var11 699)))
(assert (= "_" (str.at var3 85)))
(assert (= "a" (str.at var6 683)))
(assert (= "b" (str.at var59 178)))
(assert (= "`" (str.at var16 656)))
(assert (= "T" (str.at var12 378)))
(assert (= "9" (str.at var60 313)))
(assert (= "v" (str.at var60 160)))
(assert (= "3" (str.at var0 180)))
(assert (= "3" (str.at var57 120)))
(assert (= "," (str.at var13 557)))
(assert (= "[" (str.at var24 947)))
(assert (= "j" (str.at var55 587)))
(assert (= "u" (str.at var35 911)))
(assert (= "/" (str.at var42 914)))
(assert (= "_" (str.at var29 427)))
(assert (= "4" (str.at var2 977)))
(assert (= "8" (str.at var39 788)))
(assert (= "X" (str.at var59 370)))
(assert (= "Q" (str.at var59 489)))
(assert (= "R" (str.at var53 744)))
(assert (= "." (str.at var12 871)))
(assert (= "G" (str.at var45 504)))
(assert (= "n" (str.at var20 889)))
(assert (= "*" (str.at var52 606)))
(assert (= "h" (str.at var39 707)))
(assert (= "H" (str.at var35 823)))
(assert (= "2" (str.at var37 310)))
(assert (= "K" (str.at var2 266)))
(assert (= "i" (str.at var58 921)))
(assert (= "z" (str.at var41 829)))
(assert (= "I" (str.at var44 615)))
(assert (= "o" (str.at var25 438)))
(assert (= "_" (str.at var7 953)))
(assert (= "U" (str.at var7 720)))
(assert (= "3" (str.at var44 451)))
(assert (= "R" (str.at var24 846)))
(assert (= "G" (str.at var5 624)))
(assert (= "i" (str.at var10 611)))
(assert (= "*" (str.at var15 198)))
(assert (= ":" (str.at var58 257)))
(assert (= "L" (str.at var49 7)))
(assert (= "s" (str.at var15 835)))
(assert (= "-" (str.at var38 902)))
(assert (= ">" (str.at var29 845)))
(assert (= "1" (str.at var54 50)))
(assert (= "Y" (str.at var13 507)))
(assert (= "n" (str.at var10 126)))
(assert (= "0" (str.at var16 734)))
(assert (= "," (str.at var34 545)))
(assert (= "Z" (str.at var37 454)))
(assert (= "q" (str.at var52 536)))
(assert (= "A" (str.at var58 536)))
(assert (= "|" (str.at var33 289)))
(assert (= "K" (str.at var5 567)))
(assert (= "M" (str.at var47 278)))
(assert (= "m" (str.at var55 751)))
(assert (= "J" (str.at var9 577)))
(assert (= """" (str.at var55 47)))
(assert (= "D" (str.at var28 835)))
(assert (= ";" (str.at var40 560)))
(assert (= "M" (str.at var1 494)))
(assert (= "&" (str.at var9 850)))
(assert (= "I" (str.at var24 782)))
(assert (= "z" (str.at var16 902)))
(assert (= "X" (str.at var55 176)))
(assert (= "b" (str.at var3 12)))
(assert (= "/" (str.at var19 773)))
(assert (= "$" (str.at var39 963)))
(assert (= "i" (str.at var32 721)))
(assert (= "L" (str.at var30 964)))
(assert (= "V" (str.at var19 160)))
(assert (= "v" (str.at var27 497)))
(assert (= "&" (str.at var45 711)))
(assert (= "{" (str.at var10 997)))
(assert (= "r" (str.at var31 450)))
(assert (= "-" (str.at var46 222)))
(assert (= "+" (str.at var36 794)))
(assert (= "0" (str.at var19 450)))
(assert (= "x" (str.at var30 886)))
(assert (= "t" (str.at var16 931)))
(assert (= "o" (str.at var42 189)))
(assert (= "D" (str.at var5 100)))
(assert (= "|" (str.at var1 908)))
(assert (= "g" (str.at var40 245)))
(assert (= "{" (str.at var33 631)))
(assert (= "{" (str.at var1 351)))
(assert (= "C" (str.at var9 233)))
(assert (= "`" (str.at var3 640)))
(assert (= "a" (str.at var11 918)))
(assert (= "(" (str.at var8 466)))
(assert (= "9" (str.at var45 659)))
(assert (= "%" (str.at var39 56)))
(assert (= "Q" (str.at var35 551)))
(assert (= "C" (str.at var49 471)))
(assert (= "I" (str.at var2 477)))
(assert (= "B" (str.at var33 171)))
(assert (= "Z" (str.at var36 463)))
(assert (= "7" (str.at var38 900)))
(assert (= "m" (str.at var8 897)))
(assert (= ":" (str.at var20 119)))
(assert (= "'" (str.at var11 756)))
(assert (= "8" (str.at var39 843)))
(assert (= "P" (str.at var60 433)))
(assert (= "@" (str.at var53 485)))
(assert (= ";" (str.at var19 843)))
(assert (= "7" (str.at var39 570)))
(assert (= "D" (str.at var1 666)))
(assert (= "u" (str.at var46 256)))
(assert (= "b" (str.at var41 304)))
(assert (= "<" (str.at var34 860)))
(assert (= "p" (str.at var28 998)))
(assert (= "n" (str.at var43 315)))
(assert (= "?" (str.at var35 309)))
(assert (= "\\" (str.at var29 106)))
(assert (= "$" (str.at var26 302)))
(assert (= "1" (str.at var16 930)))
(assert (= "9" (str.at var1 709)))
(assert (= "I" (str.at var38 45)))
(assert (= "m" (str.at var2 524)))
(assert (= "U" (str.at var28 794)))
(assert (= "Y" (str.at var45 466)))
(assert (= ")" (str.at var47 27)))
(assert (= "{" (str.at var46 480)))
(assert (= "e" (str.at var6 328)))
(assert (= "u" (str.at var29 829)))
(assert (= "=" (str.at var12 478)))
(assert (= ":" (str.at var18 257)))
(assert (= """" (str.at var56 838)))
(assert (= "9" (str.at var43 22)))
(assert (= "i" (str.at var37 175)))
(assert (= ")" (str.at var7 974)))
(assert (= ")" (str.at var45 154)))
(assert (= "m" (str.at var20 337)))
(assert (= "M" (str.at var18 940)))
(assert (= "m" (str.at var13 436)))
(assert (= "q" (str.at var60 834)))
(assert (= "b" (str.at var10 484)))
(assert (= "P" (str.at var25 718)))
(assert (= "p" (str.at var58 971)))
(assert (= "{" (str.at var17 962)))
(assert (= ";" (str.at var12 838)))
(assert (= "D" (str.at var27 601)))
(assert (= "," (str.at var55 304)))
(assert (= "M" (str.at var32 512)))
(assert (= "2" (str.at var28 912)))
(assert (= ">" (str.at var26 24)))
(assert (= "~" (str.at var60 458)))
(assert (= "]" (str.at var60 400)))
(assert (= "S" (str.at var45 205)))
(assert (= "q" (str.at var36 726)))
(assert (= "-" (str.at var37 661)))
(assert (= "6" (str.at var42 343)))
(assert (= "|" (str.at var47 555)))
(assert (= "z" (str.at var6 907)))
(assert (= "(" (str.at var18 247)))
(assert (= "Y" (str.at var7 922)))
(assert (= "@" (str.at var49 648)))
(assert (= "C" (str.at var48 501)))
(assert (= "Q" (str.at var16 363)))
(assert (= "+" (str.at var35 312)))
(assert (= "j" (str.at var54 169)))
(assert (= "I" (str.at var12 399)))
(assert (= "*" (str.at var44 752)))
(assert (= "u" (str.at var36 893)))
(assert (= "(" (str.at var51 563)))
(assert (= "$" (str.at var36 65)))
(assert (= "|" (str.at var33 646)))
(assert (= "B" (str.at var36 904)))
(assert (= ";" (str.at var26 861)))
(assert (= "h" (str.at var26 729)))
(assert (= "@" (str.at var56 938)))
(assert (= "e" (str.at var2 543)))
(assert (= "c" (str.at var60 897)))
(assert (= "-" (str.at var3 633)))
(assert (= "!" (str.at var52 843)))
(assert (= "W" (str.at var6 27)))
(assert (= "u" (str.at var31 844)))
(assert (= "m" (str.at var37 399)))
(assert (= "D" (str.at var17 43)))
(assert (= "*" (str.at var21 253)))
(assert (= "T" (str.at var33 410)))
(assert (= "}" (str.at var11 788)))
(assert (= "r" (str.at var43 960)))
(assert (= "3" (str.at var54 315)))
(assert (= "s" (str.at var55 542)))
(assert (= "Z" (str.at var4 181)))
(assert (= "O" (str.at var53 176)))
(assert (= "R" (str.at var50 113)))
(assert (= "~" (str.at var8 562)))
(assert (= """" (str.at var46 254)))
(assert (= "n" (str.at var1 517)))
(assert (= "{" (str.at var48 921)))
(assert (= "Y" (str.at var14 900)))
(assert (= "!" (str.at var60 857)))
(assert (= ":" (str.at var36 852)))
(assert (= "M" (str.at var36 181)))
(assert (= "," (str.at var49 189)))
(assert (= "B" (str.at var0 739)))
(assert (= "(" (str.at var29 757)))
(assert (= "'" (str.at var33 367)))
(assert (= "8" (str.at var25 117)))
(assert (= "q" (str.at var2 72)))
(assert (= ">" (str.at var11 279)))
(assert (= "/" (str.at var39 696)))
(assert (= ">" (str.at var36 29)))
(assert (= "h" (str.at var32 184)))
(assert (= "j" (str.at var58 450)))
(assert (= "=" (str.at var7 710)))
(assert (= "." (str.at var0 526)))
(check-sat)